(set-info :smt-lib-version 2.6)
(set-logic QF_S)
(set-info :source |
Generated by: Hung-En Wang, Tzung-Lin Tsai, Chun-Han Lin, Fang Yu, and Jie-Hong R. Jiang
Generated on: 2019-02-28
Generator: Stranger
Application: Security analysis of string manipulating web applications
Target solver: CVC4, Norn, Z3-str2
Publication:
Hung-En Wang, Tzung-Lin Tsai, Chun-Han Lin, Fang Yu, Jie-Hong R. Jiang:
String Analysis via Automata Manipulation with Logic Circuit Representation. CAV (1) 2016: 241-260.
|)
(set-info :license "https://creativecommons.org/licenses/by/4.0/")
(set-info :category "industrial")
(set-info :status unknown)

(declare-fun sigmaStar_0 () String)
(declare-fun sigmaStar_1 () String)
(declare-fun sigmaStar_2 () String)
(declare-fun sigmaStar_3 () String)
(declare-fun sigmaStar_4 () String)
(declare-fun sigmaStar_5 () String)
(declare-fun sigmaStar_6 () String)
(declare-fun sigmaStar_7 () String)
(declare-fun literal_8 () String)
(declare-fun x_9 () String)
(declare-fun literal_10 () String)
(declare-fun x_11 () String)
(declare-fun x_12 () String)
(declare-fun literal_13 () String)
(declare-fun x_14 () String)
(declare-fun x_15 () String)
(declare-fun literal_16 () String)
(declare-fun x_17 () String)
(declare-fun x_18 () String)
(declare-fun literal_19 () String)
(declare-fun x_20 () String)
(declare-fun x_21 () String)
(declare-fun literal_26 () String)
(assert (= literal_8 "\u{53}\u{45}\u{4c}\u{45}\u{43}\u{54}\u{20}\u{2a}\u{20}\u{46}\u{52}\u{4f}\u{4d}\u{20}"))
(assert (= x_9 (str.++ literal_8 sigmaStar_0)))
(assert (= literal_10 "\u{73}\u{68}\u{6f}\u{75}\u{74}\u{62}\u{6f}\u{78}\u{20}\u{4c}\u{45}\u{46}\u{54}\u{20}\u{4a}\u{4f}\u{49}\u{4e}\u{20}"))
(assert (= x_11 (str.++ x_9 literal_10)))
(assert (= x_12 (str.++ x_11 sigmaStar_6)))
(assert (= literal_13 "\u{75}\u{73}\u{65}\u{72}\u{73}\u{0d}\u{0a}\u{09}\u{4f}\u{4e}\u{20}"))
(assert (= x_14 (str.++ x_12 literal_13)))
(assert (= x_15 (str.++ x_14 sigmaStar_7)))
(assert (= literal_16 "\u{73}\u{68}\u{6f}\u{75}\u{74}\u{62}\u{6f}\u{78}\u{2e}\u{73}\u{68}\u{6f}\u{75}\u{74}\u{5f}\u{6e}\u{61}\u{6d}\u{65}\u{3d}"))
(assert (= x_17 (str.++ x_15 literal_16)))
(assert (= x_18 (str.++ x_17 sigmaStar_4)))
(assert (= literal_19 "\u{75}\u{73}\u{65}\u{72}\u{73}\u{2e}\u{75}\u{73}\u{65}\u{72}\u{5f}\u{69}\u{64}\u{0d}\u{0a}\u{09}\u{4f}\u{52}\u{44}\u{45}\u{52}\u{20}\u{42}\u{59}\u{20}\u{73}\u{68}\u{6f}\u{75}\u{74}\u{5f}\u{64}\u{61}\u{74}\u{65}\u{73}\u{74}\u{61}\u{6d}\u{70}\u{20}\u{44}\u{45}\u{53}\u{43}\u{20}\u{4c}\u{49}\u{4d}\u{49}\u{54}\u{20}\u{30}\u{2c}"))
(assert (= x_20 (str.++ x_18 literal_19)))
(assert (= x_21 (str.++ x_20 sigmaStar_2)))
(assert (= literal_26 "\u{3c}\u{2f}\u{73}\u{70}\u{61}\u{6e}\u{3e}\u{3c}\u{62}\u{72}\u{3e}\u{5c}\u{6e}\u{3c}\u{73}\u{70}\u{61}\u{6e}\u{20}\u{63}\u{6c}\u{61}\u{73}\u{73}\u{3d}\u{27}\u{73}\u{68}\u{6f}\u{75}\u{74}\u{62}\u{6f}\u{78}\u{64}\u{61}\u{74}\u{65}\u{27}\u{3e}\u{73}\u{68}\u{6f}\u{72}\u{74}\u{64}\u{61}\u{74}\u{65}\u{3c}\u{2f}\u{73}\u{70}\u{61}\u{6e}\u{3e}"))
(assert (str.in_re literal_26 (re.++ (re.* re.allchar) (re.++ (str.to_re "\u{5c}\u{3c}\u{53}\u{43}\u{52}\u{49}\u{50}\u{54}") (re.* re.allchar)))))
(check-sat)
(exit)
